Methodenbank/Methoden/Kategorie A/Hotelmanager 5.0/03 Source Code/Source/new/temp/hotel.lp
max: 3300x1 + 3500x2 + 3300x3 + 3100x4 + 3000x5 + 2800x6 + 2600x7 + 2500x8 + 2300x9 + 2100x10 + 2000x11 + 1800x12 + 1700x13 + 1500x14 + 1300x15 + 1900x16 + 2000x17 + 1900x18 + 1800x19 + 1700x20 + 1600x21 + 1500x22 + 1400x23 + 1300x24 + 1200x25 + 1100x26 + 1000x27 + 1000x28 + 900x29 + 800x30 + 700x31 + 800x32 + 700x33 + 600x34 + 600x35 + 500x36 + 400x37 + 400x38 + 300x39 + 200x40 + 200x41 + 100x42 + 0x43 + 0x44 + -100x45 + 0x46 + 0x47 + 0x48 + 0x49 + 0x50 + 0x51 + 0x52 + 0x53 + 0x54 + 0x55 + 0x56 + 0x57 + 0x58 + 0x59 + 0x60 + 0x61 + 0x62 + 0x63 + 0x64 + 0x65 + 0x66 + 0x67 + 0x68 + 0x69 + 0x70 + 0x71 + 0x72 + 0x73 + 0x74 + 0x75 + 0x76 + 0x77 + 0x78;

R1: 1 x1 + 1 x2 + 1 x3 + 1 x4 + 1 x5 + 1 x6 + 1 x7 + 1 x8 + 1 x9 + 1 x10 + 1 x11 + 1 x12 + 1 x13 + 1 x14 + 1 x15 + 1 x16 + 1 x17 + 1 x18 + 1 x19 + 1 x20 + 1 x21 + 1 x22 + 1 x23 + 1 x24 + 1 x25 + 1 x26 + 1 x27 + 1 x28 + 1 x29 + 1 x30 + 1 x31 + 1 x32 + 1 x33 + 1 x34 + 1 x35 + 1 x36 + 1 x37 + 1 x38 + 1 x39 + 1 x40 + 1 x41 + 1 x42 + 1 x43 + 1 x44 + 1 x45 + 0 x46 + 0 x47 + 0 x48 + 0 x49 + 0 x50 + 0 x51 + 0 x52 + 0 x53 + 0 x54 + 0 x55 + 0 x56 + 0 x57 + 0 x58 + 0 x59 + 0 x60 + 0 x61 + 0 x62 + 0 x63 + 0 x64 + 0 x65 + 0 x66 + 0 x67 + 0 x68 + 0 x69 + 0 x70 + 0 x71 + 0 x72 + 0 x73 + 0 x74 + 0 x75 + 0 x76 + 0 x77 + 0 x78 = 5;
R2: 0 x1 + 0 x2 + 0 x3 + 0 x4 + 0 x5 + 0 x6 + 0 x7 + 0 x8 + 0 x9 + 0 x10 + 0 x11 + 0 x12 + 0 x13 + 0 x14 + 0 x15 + 0 x16 + 0 x17 + 0 x18 + 0 x19 + 0 x20 + 0 x21 + 0 x22 + 0 x23 + 0 x24 + 0 x25 + 0 x26 + 0 x27 + 0 x28 + 0 x29 + 0 x30 + 0 x31 + 0 x32 + 0 x33 + 0 x34 + 0 x35 + 0 x36 + 0 x37 + 0 x38 + 0 x39 + 0 x40 + 0 x41 + 0 x42 + 0 x43 + 0 x44 + 0 x45 + 1 x46 + 1 x47 + 1 x48 + 1 x49 + 1 x50 + 1 x51 + 1 x52 + 1 x53 + 1 x54 + 1 x55 + 1 x56 + 1 x57 + 1 x58 + 1 x59 + 1 x60 + 1 x61 + 1 x62 + 1 x63 + 1 x64 + 1 x65 + 1 x66 + 1 x67 + 1 x68 + 1 x69 + 1 x70 + 1 x71 + 1 x72 + 1 x73 + 1 x74 + 1 x75 + 1 x76 + 1 x77 + 1 x78 = 1;
R3: 1 x1 + 1 x2 + 1 x3 + 1 x4 + 1 x5 + 0 x6 + 0 x7 + 0 x8 + 0 x9 + 0 x10 + 0 x11 + 0 x12 + 0 x13 + 0 x14 + 0 x15 + 0 x16 + 0 x17 + 0 x18 + 0 x19 + 0 x20 + 0 x21 + 0 x22 + 0 x23 + 0 x24 + 0 x25 + 0 x26 + 0 x27 + 0 x28 + 0 x29 + 0 x30 + 0 x31 + 0 x32 + 0 x33 + 0 x34 + 0 x35 + 0 x36 + 0 x37 + 0 x38 + 0 x39 + 0 x40 + 0 x41 + 0 x42 + 0 x43 + 0 x44 + 0 x45 + -1000 x46 + 0 x47 + 0 x48 + 0 x49 + 0 x50 + 0 x51 + 0 x52 + 0 x53 + 0 x54 + 0 x55 + 0 x56 + 0 x57 + 0 x58 + 0 x59 + 0 x60 + 0 x61 + 0 x62 + 0 x63 + 0 x64 + 0 x65 + 0 x66 + 0 x67 + 0 x68 + 0 x69 + 0 x70 + 0 x71 + 0 x72 + 0 x73 + 0 x74 + 0 x75 + 0 x76 + 0 x77 + 0 x78 >= -995;
R4: 0 x1 + 1 x2 + 1 x3 + 1 x4 + 1 x5 + 1 x6 + 0 x7 + 0 x8 + 0 x9 + 0 x10 + 0 x11 + 0 x12 + 0 x13 + 0 x14 + 0 x15 + 0 x16 + 0 x17 + 0 x18 + 0 x19 + 0 x20 + 0 x21 + 0 x22 + 0 x23 + 0 x24 + 0 x25 + 0 x26 + 0 x27 + 0 x28 + 0 x29 + 0 x30 + 0 x31 + 0 x32 + 0 x33 + 0 x34 + 0 x35 + 0 x36 + 0 x37 + 0 x38 + 0 x39 + 0 x40 + 0 x41 + 0 x42 + 0 x43 + 0 x44 + 0 x45 + 0 x46 + -1000 x47 + 0 x48 + 0 x49 + 0 x50 + 0 x51 + 0 x52 + 0 x53 + 0 x54 + 0 x55 + 0 x56 + 0 x57 + 0 x58 + 0 x59 + 0 x60 + 0 x61 + 0 x62 + 0 x63 + 0 x64 + 0 x65 + 0 x66 + 0 x67 + 0 x68 + 0 x69 + 0 x70 + 0 x71 + 0 x72 + 0 x73 + 0 x74 + 0 x75 + 0 x76 + 0 x77 + 0 x78 >= -995;
R5: 0 x1 + 0 x2 + 1 x3 + 1 x4 + 1 x5 + 1 x6 + 1 x7 + 0 x8 + 0 x9 + 0 x10 + 0 x11 + 0 x12 + 0 x13 + 0 x14 + 0 x15 + 0 x16 + 0 x17 + 0 x18 + 0 x19 + 0 x20 + 0 x21 + 0 x22 + 0 x23 + 0 x24 + 0 x25 + 0 x26 + 0 x27 + 0 x28 + 0 x29 + 0 x30 + 0 x31 + 0 x32 + 0 x33 + 0 x34 + 0 x35 + 0 x36 + 0 x37 + 0 x38 + 0 x39 + 0 x40 + 0 x41 + 0 x42 + 0 x43 + 0 x44 + 0 x45 + 0 x46 + 0 x47 + -1000 x48 + 0 x49 + 0 x50 + 0 x51 + 0 x52 + 0 x53 + 0 x54 + 0 x55 + 0 x56 + 0 x57 + 0 x58 + 0 x59 + 0 x60 + 0 x61 + 0 x62 + 0 x63 + 0 x64 + 0 x65 + 0 x66 + 0 x67 + 0 x68 + 0 x69 + 0 x70 + 0 x71 + 0 x72 + 0 x73 + 0 x74 + 0 x75 + 0 x76 + 0 x77 + 0 x78 >= -995;
R6: 0 x1 + 0 x2 + 0 x3 + 1 x4 + 1 x5 + 1 x6 + 1 x7 + 1 x8 + 0 x9 + 0 x10 + 0 x11 + 0 x12 + 0 x13 + 0 x14 + 0 x15 + 0 x16 + 0 x17 + 0 x18 + 0 x19 + 0 x20 + 0 x21 + 0 x22 + 0 x23 + 0 x24 + 0 x25 + 0 x26 + 0 x27 + 0 x28 + 0 x29 + 0 x30 + 0 x31 + 0 x32 + 0 x33 + 0 x34 + 0 x35 + 0 x36 + 0 x37 + 0 x38 + 0 x39 + 0 x40 + 0 x41 + 0 x42 + 0 x43 + 0 x44 + 0 x45 + 0 x46 + 0 x47 + 0 x48 + -1000 x49 + 0 x50 + 0 x51 + 0 x52 + 0 x53 + 0 x54 + 0 x55 + 0 x56 + 0 x57 + 0 x58 + 0 x59 + 0 x60 + 0 x61 + 0 x62 + 0 x63 + 0 x64 + 0 x65 + 0 x66 + 0 x67 + 0 x68 + 0 x69 + 0 x70 + 0 x71 + 0 x72 + 0 x73 + 0 x74 + 0 x75 + 0 x76 + 0 x77 + 0 x78 >= -995;
R7: 0 x1 + 0 x2 + 0 x3 + 0 x4 + 1 x5 + 1 x6 + 1 x7 + 1 x8 + 1 x9 + 0 x10 + 0 x11 + 0 x12 + 0 x13 + 0 x14 + 0 x15 + 0 x16 + 0 x17 + 0 x18 + 0 x19 + 0 x20 + 0 x21 + 0 x22 + 0 x23 + 0 x24 + 0 x25 + 0 x26 + 0 x27 + 0 x28 + 0 x29 + 0 x30 + 0 x31 + 0 x32 + 0 x33 + 0 x34 + 0 x35 + 0 x36 + 0 x37 + 0 x38 + 0 x39 + 0 x40 + 0 x41 + 0 x42 + 0 x43 + 0 x44 + 0 x45 + 0 x46 + 0 x47 + 0 x48 + 0 x49 + -1000 x50 + 0 x51 + 0 x52 + 0 x53 + 0 x54 + 0 x55 + 0 x56 + 0 x57 + 0 x58 + 0 x59 + 0 x60 + 0 x61 + 0 x62 + 0 x63 + 0 x64 + 0 x65 + 0 x66 + 0 x67 + 0 x68 + 0 x69 + 0 x70 + 0 x71 + 0 x72 + 0 x73 + 0 x74 + 0 x75 + 0 x76 + 0 x77 + 0 x78 >= -995;
R8: 0 x1 + 0 x2 + 0 x3 + 0 x4 + 0 x5 + 1 x6 + 1 x7 + 1 x8 + 1 x9 + 1 x10 + 0 x11 + 0 x12 + 0 x13 + 0 x14 + 0 x15 + 0 x16 + 0 x17 + 0 x18 + 0 x19 + 0 x20 + 0 x21 + 0 x22 + 0 x23 + 0 x24 + 0 x25 + 0 x26 + 0 x27 + 0 x28 + 0 x29 + 0 x30 + 0 x31 + 0 x32 + 0 x33 + 0 x34 + 0 x35 + 0 x36 + 0 x37 + 0 x38 + 0 x39 + 0 x40 + 0 x41 + 0 x42 + 0 x43 + 0 x44 + 0 x45 + 0 x46 + 0 x47 + 0 x48 + 0 x49 + 0 x50 + -1000 x51 + 0 x52 + 0 x53 + 0 x54 + 0 x55 + 0 x56 + 0 x57 + 0 x58 + 0 x59 + 0 x60 + 0 x61 + 0 x62 + 0 x63 + 0 x64 + 0 x65 + 0 x66 + 0 x67 + 0 x68 + 0 x69 + 0 x70 + 0 x71 + 0 x72 + 0 x73 + 0 x74 + 0 x75 + 0 x76 + 0 x77 + 0 x78 >= -995;
R9: 0 x1 + 0 x2 + 0 x3 + 0 x4 + 0 x5 + 0 x6 + 1 x7 + 1 x8 + 1 x9 + 1 x10 + 1 x11 + 0 x12 + 0 x13 + 0 x14 + 0 x15 + 0 x16 + 0 x17 + 0 x18 + 0 x19 + 0 x20 + 0 x21 + 0 x22 + 0 x23 + 0 x24 + 0 x25 + 0 x26 + 0 x27 + 0 x28 + 0 x29 + 0 x30 + 0 x31 + 0 x32 + 0 x33 + 0 x34 + 0 x35 + 0 x36 + 0 x37 + 0 x38 + 0 x39 + 0 x40 + 0 x41 + 0 x42 + 0 x43 + 0 x44 + 0 x45 + 0 x46 + 0 x47 + 0 x48 + 0 x49 + 0 x50 + 0 x51 + -1000 x52 + 0 x53 + 0 x54 + 0 x55 + 0 x56 + 0 x57 + 0 x58 + 0 x59 + 0 x60 + 0 x61 + 0 x62 + 0 x63 + 0 x64 + 0 x65 + 0 x66 + 0 x67 + 0 x68 + 0 x69 + 0 x70 + 0 x71 + 0 x72 + 0 x73 + 0 x74 + 0 x75 + 0 x76 + 0 x77 + 0 x78 >= -995;
R10: 0 x1 + 0 x2 + 0 x3 + 0 x4 + 0 x5 + 0 x6 + 0 x7 + 1 x8 + 1 x9 + 1 x10 + 1 x11 + 1 x12 + 0 x13 + 0 x14 + 0 x15 + 0 x16 + 0 x17 + 0 x18 + 0 x19 + 0 x20 + 0 x21 + 0 x22 + 0 x23 + 0 x24 + 0 x25 + 0 x26 + 0 x27 + 0 x28 + 0 x29 + 0 x30 + 0 x31 + 0 x32 + 0 x33 + 0 x34 + 0 x35 + 0 x36 + 0 x37 + 0 x38 + 0 x39 + 0 x40 + 0 x41 + 0 x42 + 0 x43 + 0 x44 + 0 x45 + 0 x46 + 0 x47 + 0 x48 + 0 x49 + 0 x50 + 0 x51 + 0 x52 + -1000 x53 + 0 x54 + 0 x55 + 0 x56 + 0 x57 + 0 x58 + 0 x59 + 0 x60 + 0 x61 + 0 x62 + 0 x63 + 0 x64 + 0 x65 + 0 x66 + 0 x67 + 0 x68 + 0 x69 + 0 x70 + 0 x71 + 0 x72 + 0 x73 + 0 x74 + 0 x75 + 0 x76 + 0 x77 + 0 x78 >= -995;
R11: 0 x1 + 0 x2 + 0 x3 + 0 x4 + 0 x5 + 0 x6 + 0 x7 + 0 x8 + 1 x9 + 1 x10 + 1 x11 + 1 x12 + 1 x13 + 0 x14 + 0 x15 + 0 x16 + 0 x17 + 0 x18 + 0 x19 + 0 x20 + 0 x21 + 0 x22 + 0 x23 + 0 x24 + 0 x25 + 0 x26 + 0 x27 + 0 x28 + 0 x29 + 0 x30 + 0 x31 + 0 x32 + 0 x33 + 0 x34 + 0 x35 + 0 x36 + 0 x37 + 0 x38 + 0 x39 + 0 x40 + 0 x41 + 0 x42 + 0 x43 + 0 x44 + 0 x45 + 0 x46 + 0 x47 + 0 x48 + 0 x49 + 0 x50 + 0 x51 + 0 x52 + 0 x53 + -1000 x54 + 0 x55 + 0 x56 + 0 x57 + 0 x58 + 0 x59 + 0 x60 + 0 x61 + 0 x62 + 0 x63 + 0 x64 + 0 x65 + 0 x66 + 0 x67 + 0 x68 + 0 x69 + 0 x70 + 0 x71 + 0 x72 + 0 x73 + 0 x74 + 0 x75 + 0 x76 + 0 x77 + 0 x78 >= -995;
R12: 0 x1 + 0 x2 + 0 x3 + 0 x4 + 0 x5 + 0 x6 + 0 x7 + 0 x8 + 0 x9 + 1 x10 + 1 x11 + 1 x12 + 1 x13 + 1 x14 + 0 x15 + 0 x16 + 0 x17 + 0 x18 + 0 x19 + 0 x20 + 0 x21 + 0 x22 + 0 x23 + 0 x24 + 0 x25 + 0 x26 + 0 x27 + 0 x28 + 0 x29 + 0 x30 + 0 x31 + 0 x32 + 0 x33 + 0 x34 + 0 x35 + 0 x36 + 0 x37 + 0 x38 + 0 x39 + 0 x40 + 0 x41 + 0 x42 + 0 x43 + 0 x44 + 0 x45 + 0 x46 + 0 x47 + 0 x48 + 0 x49 + 0 x50 + 0 x51 + 0 x52 + 0 x53 + 0 x54 + -1000 x55 + 0 x56 + 0 x57 + 0 x58 + 0 x59 + 0 x60 + 0 x61 + 0 x62 + 0 x63 + 0 x64 + 0 x65 + 0 x66 + 0 x67 + 0 x68 + 0 x69 + 0 x70 + 0 x71 + 0 x72 + 0 x73 + 0 x74 + 0 x75 + 0 x76 + 0 x77 + 0 x78 >= -995;
R13: 0 x1 + 0 x2 + 0 x3 + 0 x4 + 0 x5 + 0 x6 + 0 x7 + 0 x8 + 0 x9 + 0 x10 + 1 x11 + 1 x12 + 1 x13 + 1 x14 + 1 x15 + 0 x16 + 0 x17 + 0 x18 + 0 x19 + 0 x20 + 0 x21 + 0 x22 + 0 x23 + 0 x24 + 0 x25 + 0 x26 + 0 x27 + 0 x28 + 0 x29 + 0 x30 + 0 x31 + 0 x32 + 0 x33 + 0 x34 + 0 x35 + 0 x36 + 0 x37 + 0 x38 + 0 x39 + 0 x40 + 0 x41 + 0 x42 + 0 x43 + 0 x44 + 0 x45 + 0 x46 + 0 x47 + 0 x48 + 0 x49 + 0 x50 + 0 x51 + 0 x52 + 0 x53 + 0 x54 + 0 x55 + -1000 x56 + 0 x57 + 0 x58 + 0 x59 + 0 x60 + 0 x61 + 0 x62 + 0 x63 + 0 x64 + 0 x65 + 0 x66 + 0 x67 + 0 x68 + 0 x69 + 0 x70 + 0 x71 + 0 x72 + 0 x73 + 0 x74 + 0 x75 + 0 x76 + 0 x77 + 0 x78 >= -995;
R14: 0 x1 + 0 x2 + 0 x3 + 0 x4 + 0 x5 + 0 x6 + 0 x7 + 0 x8 + 0 x9 + 0 x10 + 0 x11 + 0 x12 + 1 x13 + 1 x14 + 1 x15 + 1 x16 + 1 x17 + 0 x18 + 0 x19 + 0 x20 + 0 x21 + 0 x22 + 0 x23 + 0 x24 + 0 x25 + 0 x26 + 0 x27 + 0 x28 + 0 x29 + 0 x30 + 0 x31 + 0 x32 + 0 x33 + 0 x34 + 0 x35 + 0 x36 + 0 x37 + 0 x38 + 0 x39 + 0 x40 + 0 x41 + 0 x42 + 0 x43 + 0 x44 + 0 x45 + 0 x46 + 0 x47 + 0 x48 + 0 x49 + 0 x50 + 0 x51 + 0 x52 + 0 x53 + 0 x54 + 0 x55 + 0 x56 + -1000 x57 + 0 x58 + 0 x59 + 0 x60 + 0 x61 + 0 x62 + 0 x63 + 0 x64 + 0 x65 + 0 x66 + 0 x67 + 0 x68 + 0 x69 + 0 x70 + 0 x71 + 0 x72 + 0 x73 + 0 x74 + 0 x75 + 0 x76 + 0 x77 + 0 x78 >= -995;
R15: 0 x1 + 0 x2 + 0 x3 + 0 x4 + 0 x5 + 0 x6 + 0 x7 + 0 x8 + 0 x9 + 0 x10 + 0 x11 + 0 x12 + 0 x13 + 1 x14 + 1 x15 + 1 x16 + 1 x17 + 1 x18 + 0 x19 + 0 x20 + 0 x21 + 0 x22 + 0 x23 + 0 x24 + 0 x25 + 0 x26 + 0 x27 + 0 x28 + 0 x29 + 0 x30 + 0 x31 + 0 x32 + 0 x33 + 0 x34 + 0 x35 + 0 x36 + 0 x37 + 0 x38 + 0 x39 + 0 x40 + 0 x41 + 0 x42 + 0 x43 + 0 x44 + 0 x45 + 0 x46 + 0 x47 + 0 x48 + 0 x49 + 0 x50 + 0 x51 + 0 x52 + 0 x53 + 0 x54 + 0 x55 + 0 x56 + 0 x57 + -1000 x58 + 0 x59 + 0 x60 + 0 x61 + 0 x62 + 0 x63 + 0 x64 + 0 x65 + 0 x66 + 0 x67 + 0 x68 + 0 x69 + 0 x70 + 0 x71 + 0 x72 + 0 x73 + 0 x74 + 0 x75 + 0 x76 + 0 x77 + 0 x78 >= -995;
R16: 0 x1 + 0 x2 + 0 x3 + 0 x4 + 0 x5 + 0 x6 + 0 x7 + 0 x8 + 0 x9 + 0 x10 + 0 x11 + 0 x12 + 0 x13 + 0 x14 + 1 x15 + 1 x16 + 1 x17 + 1 x18 + 1 x19 + 0 x20 + 0 x21 + 0 x22 + 0 x23 + 0 x24 + 0 x25 + 0 x26 + 0 x27 + 0 x28 + 0 x29 + 0 x30 + 0 x31 + 0 x32 + 0 x33 + 0 x34 + 0 x35 + 0 x36 + 0 x37 + 0 x38 + 0 x39 + 0 x40 + 0 x41 + 0 x42 + 0 x43 + 0 x44 + 0 x45 + 0 x46 + 0 x47 + 0 x48 + 0 x49 + 0 x50 + 0 x51 + 0 x52 + 0 x53 + 0 x54 + 0 x55 + 0 x56 + 0 x57 + 0 x58 + -1000 x59 + 0 x60 + 0 x61 + 0 x62 + 0 x63 + 0 x64 + 0 x65 + 0 x66 + 0 x67 + 0 x68 + 0 x69 + 0 x70 + 0 x71 + 0 x72 + 0 x73 + 0 x74 + 0 x75 + 0 x76 + 0 x77 + 0 x78 >= -995;
R17: 0 x1 + 0 x2 + 0 x3 + 0 x4 + 0 x5 + 0 x6 + 0 x7 + 0 x8 + 0 x9 + 0 x10 + 0 x11 + 0 x12 + 0 x13 + 0 x14 + 0 x15 + 1 x16 + 1 x17 + 1 x18 + 1 x19 + 1 x20 + 0 x21 + 0 x22 + 0 x23 + 0 x24 + 0 x25 + 0 x26 + 0 x27 + 0 x28 + 0 x29 + 0 x30 + 0 x31 + 0 x32 + 0 x33 + 0 x34 + 0 x35 + 0 x36 + 0 x37 + 0 x38 + 0 x39 + 0 x40 + 0 x41 + 0 x42 + 0 x43 + 0 x44 + 0 x45 + 0 x46 + 0 x47 + 0 x48 + 0 x49 + 0 x50 + 0 x51 + 0 x52 + 0 x53 + 0 x54 + 0 x55 + 0 x56 + 0 x57 + 0 x58 + 0 x59 + -1000 x60 + 0 x61 + 0 x62 + 0 x63 + 0 x64 + 0 x65 + 0 x66 + 0 x67 + 0 x68 + 0 x69 + 0 x70 + 0 x71 + 0 x72 + 0 x73 + 0 x74 + 0 x75 + 0 x76 + 0 x77 + 0 x78 >= -995;
R18: 0 x1 + 0 x2 + 0 x3 + 0 x4 + 0 x5 + 0 x6 + 0 x7 + 0 x8 + 0 x9 + 0 x10 + 0 x11 + 0 x12 + 0 x13 + 0 x14 + 0 x15 + 0 x16 + 1 x17 + 1 x18 + 1 x19 + 1 x20 + 1 x21 + 0 x22 + 0 x23 + 0 x24 + 0 x25 + 0 x26 + 0 x27 + 0 x28 + 0 x29 + 0 x30 + 0 x31 + 0 x32 + 0 x33 + 0 x34 + 0 x35 + 0 x36 + 0 x37 + 0 x38 + 0 x39 + 0 x40 + 0 x41 + 0 x42 + 0 x43 + 0 x44 + 0 x45 + 0 x46 + 0 x47 + 0 x48 + 0 x49 + 0 x50 + 0 x51 + 0 x52 + 0 x53 + 0 x54 + 0 x55 + 0 x56 + 0 x57 + 0 x58 + 0 x59 + 0 x60 + -1000 x61 + 0 x62 + 0 x63 + 0 x64 + 0 x65 + 0 x66 + 0 x67 + 0 x68 + 0 x69 + 0 x70 + 0 x71 + 0 x72 + 0 x73 + 0 x74 + 0 x75 + 0 x76 + 0 x77 + 0 x78 >= -995;
R19: 0 x1 + 0 x2 + 0 x3 + 0 x4 + 0 x5 + 0 x6 + 0 x7 + 0 x8 + 0 x9 + 0 x10 + 0 x11 + 0 x12 + 0 x13 + 0 x14 + 0 x15 + 0 x16 + 0 x17 + 1 x18 + 1 x19 + 1 x20 + 1 x21 + 1 x22 + 0 x23 + 0 x24 + 0 x25 + 0 x26 + 0 x27 + 0 x28 + 0 x29 + 0 x30 + 0 x31 + 0 x32 + 0 x33 + 0 x34 + 0 x35 + 0 x36 + 0 x37 + 0 x38 + 0 x39 + 0 x40 + 0 x41 + 0 x42 + 0 x43 + 0 x44 + 0 x45 + 0 x46 + 0 x47 + 0 x48 + 0 x49 + 0 x50 + 0 x51 + 0 x52 + 0 x53 + 0 x54 + 0 x55 + 0 x56 + 0 x57 + 0 x58 + 0 x59 + 0 x60 + 0 x61 + -1000 x62 + 0 x63 + 0 x64 + 0 x65 + 0 x66 + 0 x67 + 0 x68 + 0 x69 + 0 x70 + 0 x71 + 0 x72 + 0 x73 + 0 x74 + 0 x75 + 0 x76 + 0 x77 + 0 x78 >= -995;
R20: 0 x1 + 0 x2 + 0 x3 + 0 x4 + 0 x5 + 0 x6 + 0 x7 + 0 x8 + 0 x9 + 0 x10 + 0 x11 + 0 x12 + 0 x13 + 0 x14 + 0 x15 + 0 x16 + 0 x17 + 0 x18 + 1 x19 + 1 x20 + 1 x21 + 1 x22 + 1 x23 + 0 x24 + 0 x25 + 0 x26 + 0 x27 + 0 x28 + 0 x29 + 0 x30 + 0 x31 + 0 x32 + 0 x33 + 0 x34 + 0 x35 + 0 x36 + 0 x37 + 0 x38 + 0 x39 + 0 x40 + 0 x41 + 0 x42 + 0 x43 + 0 x44 + 0 x45 + 0 x46 + 0 x47 + 0 x48 + 0 x49 + 0 x50 + 0 x51 + 0 x52 + 0 x53 + 0 x54 + 0 x55 + 0 x56 + 0 x57 + 0 x58 + 0 x59 + 0 x60 + 0 x61 + 0 x62 + -1000 x63 + 0 x64 + 0 x65 + 0 x66 + 0 x67 + 0 x68 + 0 x69 + 0 x70 + 0 x71 + 0 x72 + 0 x73 + 0 x74 + 0 x75 + 0 x76 + 0 x77 + 0 x78 >= -995;
R21: 0 x1 + 0 x2 + 0 x3 + 0 x4 + 0 x5 + 0 x6 + 0 x7 + 0 x8 + 0 x9 + 0 x10 + 0 x11 + 0 x12 + 0 x13 + 0 x14 + 0 x15 + 0 x16 + 0 x17 + 0 x18 + 0 x19 + 1 x20 + 1 x21 + 1 x22 + 1 x23 + 1 x24 + 0 x25 + 0 x26 + 0 x27 + 0 x28 + 0 x29 + 0 x30 + 0 x31 + 0 x32 + 0 x33 + 0 x34 + 0 x35 + 0 x36 + 0 x37 + 0 x38 + 0 x39 + 0 x40 + 0 x41 + 0 x42 + 0 x43 + 0 x44 + 0 x45 + 0 x46 + 0 x47 + 0 x48 + 0 x49 + 0 x50 + 0 x51 + 0 x52 + 0 x53 + 0 x54 + 0 x55 + 0 x56 + 0 x57 + 0 x58 + 0 x59 + 0 x60 + 0 x61 + 0 x62 + 0 x63 + -1000 x64 + 0 x65 + 0 x66 + 0 x67 + 0 x68 + 0 x69 + 0 x70 + 0 x71 + 0 x72 + 0 x73 + 0 x74 + 0 x75 + 0 x76 + 0 x77 + 0 x78 >= -995;
R22: 0 x1 + 0 x2 + 0 x3 + 0 x4 + 0 x5 + 0 x6 + 0 x7 + 0 x8 + 0 x9 + 0 x10 + 0 x11 + 0 x12 + 0 x13 + 0 x14 + 0 x15 + 0 x16 + 0 x17 + 0 x18 + 0 x19 + 0 x20 + 1 x21 + 1 x22 + 1 x23 + 1 x24 + 1 x25 + 0 x26 + 0 x27 + 0 x28 + 0 x29 + 0 x30 + 0 x31 + 0 x32 + 0 x33 + 0 x34 + 0 x35 + 0 x36 + 0 x37 + 0 x38 + 0 x39 + 0 x40 + 0 x41 + 0 x42 + 0 x43 + 0 x44 + 0 x45 + 0 x46 + 0 x47 + 0 x48 + 0 x49 + 0 x50 + 0 x51 + 0 x52 + 0 x53 + 0 x54 + 0 x55 + 0 x56 + 0 x57 + 0 x58 + 0 x59 + 0 x60 + 0 x61 + 0 x62 + 0 x63 + 0 x64 + -1000 x65 + 0 x66 + 0 x67 + 0 x68 + 0 x69 + 0 x70 + 0 x71 + 0 x72 + 0 x73 + 0 x74 + 0 x75 + 0 x76 + 0 x77 + 0 x78 >= -995;
R23: 0 x1 + 0 x2 + 0 x3 + 0 x4 + 0 x5 + 0 x6 + 0 x7 + 0 x8 + 0 x9 + 0 x10 + 0 x11 + 0 x12 + 0 x13 + 0 x14 + 0 x15 + 0 x16 + 0 x17 + 0 x18 + 0 x19 + 0 x20 + 0 x21 + 1 x22 + 1 x23 + 1 x24 + 1 x25 + 1 x26 + 0 x27 + 0 x28 + 0 x29 + 0 x30 + 0 x31 + 0 x32 + 0 x33 + 0 x34 + 0 x35 + 0 x36 + 0 x37 + 0 x38 + 0 x39 + 0 x40 + 0 x41 + 0 x42 + 0 x43 + 0 x44 + 0 x45 + 0 x46 + 0 x47 + 0 x48 + 0 x49 + 0 x50 + 0 x51 + 0 x52 + 0 x53 + 0 x54 + 0 x55 + 0 x56 + 0 x57 + 0 x58 + 0 x59 + 0 x60 + 0 x61 + 0 x62 + 0 x63 + 0 x64 + 0 x65 + -1000 x66 + 0 x67 + 0 x68 + 0 x69 + 0 x70 + 0 x71 + 0 x72 + 0 x73 + 0 x74 + 0 x75 + 0 x76 + 0 x77 + 0 x78 >= -995;
R24: 0 x1 + 0 x2 + 0 x3 + 0 x4 + 0 x5 + 0 x6 + 0 x7 + 0 x8 + 0 x9 + 0 x10 + 0 x11 + 0 x12 + 0 x13 + 0 x14 + 0 x15 + 0 x16 + 0 x17 + 0 x18 + 0 x19 + 0 x20 + 0 x21 + 0 x22 + 1 x23 + 1 x24 + 1 x25 + 1 x26 + 1 x27 + 0 x28 + 0 x29 + 0 x30 + 0 x31 + 0 x32 + 0 x33 + 0 x34 + 0 x35 + 0 x36 + 0 x37 + 0 x38 + 0 x39 + 0 x40 + 0 x41 + 0 x42 + 0 x43 + 0 x44 + 0 x45 + 0 x46 + 0 x47 + 0 x48 + 0 x49 + 0 x50 + 0 x51 + 0 x52 + 0 x53 + 0 x54 + 0 x55 + 0 x56 + 0 x57 + 0 x58 + 0 x59 + 0 x60 + 0 x61 + 0 x62 + 0 x63 + 0 x64 + 0 x65 + 0 x66 + -1000 x67 + 0 x68 + 0 x69 + 0 x70 + 0 x71 + 0 x72 + 0 x73 + 0 x74 + 0 x75 + 0 x76 + 0 x77 + 0 x78 >= -995;
R25: 0 x1 + 0 x2 + 0 x3 + 0 x4 + 0 x5 + 0 x6 + 0 x7 + 0 x8 + 0 x9 + 0 x10 + 0 x11 + 0 x12 + 0 x13 + 0 x14 + 0 x15 + 0 x16 + 0 x17 + 0 x18 + 0 x19 + 0 x20 + 0 x21 + 0 x22 + 0 x23 + 0 x24 + 1 x25 + 1 x26 + 1 x27 + 1 x28 + 1 x29 + 0 x30 + 0 x31 + 0 x32 + 0 x33 + 0 x34 + 0 x35 + 0 x36 + 0 x37 + 0 x38 + 0 x39 + 0 x40 + 0 x41 + 0 x42 + 0 x43 + 0 x44 + 0 x45 + 0 x46 + 0 x47 + 0 x48 + 0 x49 + 0 x50 + 0 x51 + 0 x52 + 0 x53 + 0 x54 + 0 x55 + 0 x56 + 0 x57 + 0 x58 + 0 x59 + 0 x60 + 0 x61 + 0 x62 + 0 x63 + 0 x64 + 0 x65 + 0 x66 + 0 x67 + -1000 x68 + 0 x69 + 0 x70 + 0 x71 + 0 x72 + 0 x73 + 0 x74 + 0 x75 + 0 x76 + 0 x77 + 0 x78 >= -995;
R26: 0 x1 + 0 x2 + 0 x3 + 0 x4 + 0 x5 + 0 x6 + 0 x7 + 0 x8 + 0 x9 + 0 x10 + 0 x11 + 0 x12 + 0 x13 + 0 x14 + 0 x15 + 0 x16 + 0 x17 + 0 x18 + 0 x19 + 0 x20 + 0 x21 + 0 x22 + 0 x23 + 0 x24 + 0 x25 + 1 x26 + 1 x27 + 1 x28 + 1 x29 + 1 x30 + 0 x31 + 0 x32 + 0 x33 + 0 x34 + 0 x35 + 0 x36 + 0 x37 + 0 x38 + 0 x39 + 0 x40 + 0 x41 + 0 x42 + 0 x43 + 0 x44 + 0 x45 + 0 x46 + 0 x47 + 0 x48 + 0 x49 + 0 x50 + 0 x51 + 0 x52 + 0 x53 + 0 x54 + 0 x55 + 0 x56 + 0 x57 + 0 x58 + 0 x59 + 0 x60 + 0 x61 + 0 x62 + 0 x63 + 0 x64 + 0 x65 + 0 x66 + 0 x67 + 0 x68 + -1000 x69 + 0 x70 + 0 x71 + 0 x72 + 0 x73 + 0 x74 + 0 x75 + 0 x76 + 0 x77 + 0 x78 >= -995;
R27: 0 x1 + 0 x2 + 0 x3 + 0 x4 + 0 x5 + 0 x6 + 0 x7 + 0 x8 + 0 x9 + 0 x10 + 0 x11 + 0 x12 + 0 x13 + 0 x14 + 0 x15 + 0 x16 + 0 x17 + 0 x18 + 0 x19 + 0 x20 + 0 x21 + 0 x22 + 0 x23 + 0 x24 + 0 x25 + 0 x26 + 1 x27 + 1 x28 + 1 x29 + 1 x30 + 1 x31 + 0 x32 + 0 x33 + 0 x34 + 0 x35 + 0 x36 + 0 x37 + 0 x38 + 0 x39 + 0 x40 + 0 x41 + 0 x42 + 0 x43 + 0 x44 + 0 x45 + 0 x46 + 0 x47 + 0 x48 + 0 x49 + 0 x50 + 0 x51 + 0 x52 + 0 x53 + 0 x54 + 0 x55 + 0 x56 + 0 x57 + 0 x58 + 0 x59 + 0 x60 + 0 x61 + 0 x62 + 0 x63 + 0 x64 + 0 x65 + 0 x66 + 0 x67 + 0 x68 + 0 x69 + -1000 x70 + 0 x71 + 0 x72 + 0 x73 + 0 x74 + 0 x75 + 0 x76 + 0 x77 + 0 x78 >= -995;
R28: 0 x1 + 0 x2 + 0 x3 + 0 x4 + 0 x5 + 0 x6 + 0 x7 + 0 x8 + 0 x9 + 0 x10 + 0 x11 + 0 x12 + 0 x13 + 0 x14 + 0 x15 + 0 x16 + 0 x17 + 0 x18 + 0 x19 + 0 x20 + 0 x21 + 0 x22 + 0 x23 + 0 x24 + 0 x25 + 0 x26 + 0 x27 + 1 x28 + 1 x29 + 1 x30 + 1 x31 + 1 x32 + 0 x33 + 0 x34 + 0 x35 + 0 x36 + 0 x37 + 0 x38 + 0 x39 + 0 x40 + 0 x41 + 0 x42 + 0 x43 + 0 x44 + 0 x45 + 0 x46 + 0 x47 + 0 x48 + 0 x49 + 0 x50 + 0 x51 + 0 x52 + 0 x53 + 0 x54 + 0 x55 + 0 x56 + 0 x57 + 0 x58 + 0 x59 + 0 x60 + 0 x61 + 0 x62 + 0 x63 + 0 x64 + 0 x65 + 0 x66 + 0 x67 + 0 x68 + 0 x69 + 0 x70 + -1000 x71 + 0 x72 + 0 x73 + 0 x74 + 0 x75 + 0 x76 + 0 x77 + 0 x78 >= -995;
R29: 0 x1 + 0 x2 + 0 x3 + 0 x4 + 0 x5 + 0 x6 + 0 x7 + 0 x8 + 0 x9 + 0 x10 + 0 x11 + 0 x12 + 0 x13 + 0 x14 + 0 x15 + 0 x16 + 0 x17 + 0 x18 + 0 x19 + 0 x20 + 0 x21 + 0 x22 + 0 x23 + 0 x24 + 0 x25 + 0 x26 + 0 x27 + 0 x28 + 1 x29 + 1 x30 + 1 x31 + 1 x32 + 1 x33 + 0 x34 + 0 x35 + 0 x36 + 0 x37 + 0 x38 + 0 x39 + 0 x40 + 0 x41 + 0 x42 + 0 x43 + 0 x44 + 0 x45 + 0 x46 + 0 x47 + 0 x48 + 0 x49 + 0 x50 + 0 x51 + 0 x52 + 0 x53 + 0 x54 + 0 x55 + 0 x56 + 0 x57 + 0 x58 + 0 x59 + 0 x60 + 0 x61 + 0 x62 + 0 x63 + 0 x64 + 0 x65 + 0 x66 + 0 x67 + 0 x68 + 0 x69 + 0 x70 + 0 x71 + -1000 x72 + 0 x73 + 0 x74 + 0 x75 + 0 x76 + 0 x77 + 0 x78 >= -995;
R30: 0 x1 + 0 x2 + 0 x3 + 0 x4 + 0 x5 + 0 x6 + 0 x7 + 0 x8 + 0 x9 + 0 x10 + 0 x11 + 0 x12 + 0 x13 + 0 x14 + 0 x15 + 0 x16 + 0 x17 + 0 x18 + 0 x19 + 0 x20 + 0 x21 + 0 x22 + 0 x23 + 0 x24 + 0 x25 + 0 x26 + 0 x27 + 0 x28 + 0 x29 + 1 x30 + 1 x31 + 1 x32 + 1 x33 + 1 x34 + 0 x35 + 0 x36 + 0 x37 + 0 x38 + 0 x39 + 0 x40 + 0 x41 + 0 x42 + 0 x43 + 0 x44 + 0 x45 + 0 x46 + 0 x47 + 0 x48 + 0 x49 + 0 x50 + 0 x51 + 0 x52 + 0 x53 + 0 x54 + 0 x55 + 0 x56 + 0 x57 + 0 x58 + 0 x59 + 0 x60 + 0 x61 + 0 x62 + 0 x63 + 0 x64 + 0 x65 + 0 x66 + 0 x67 + 0 x68 + 0 x69 + 0 x70 + 0 x71 + 0 x72 + -1000 x73 + 0 x74 + 0 x75 + 0 x76 + 0 x77 + 0 x78 >= -995;
R31: 0 x1 + 0 x2 + 0 x3 + 0 x4 + 0 x5 + 0 x6 + 0 x7 + 0 x8 + 0 x9 + 0 x10 + 0 x11 + 0 x12 + 0 x13 + 0 x14 + 0 x15 + 0 x16 + 0 x17 + 0 x18 + 0 x19 + 0 x20 + 0 x21 + 0 x22 + 0 x23 + 0 x24 + 0 x25 + 0 x26 + 0 x27 + 0 x28 + 0 x29 + 0 x30 + 1 x31 + 1 x32 + 1 x33 + 1 x34 + 1 x35 + 0 x36 + 0 x37 + 0 x38 + 0 x39 + 0 x40 + 0 x41 + 0 x42 + 0 x43 + 0 x44 + 0 x45 + 0 x46 + 0 x47 + 0 x48 + 0 x49 + 0 x50 + 0 x51 + 0 x52 + 0 x53 + 0 x54 + 0 x55 + 0 x56 + 0 x57 + 0 x58 + 0 x59 + 0 x60 + 0 x61 + 0 x62 + 0 x63 + 0 x64 + 0 x65 + 0 x66 + 0 x67 + 0 x68 + 0 x69 + 0 x70 + 0 x71 + 0 x72 + 0 x73 + -1000 x74 + 0 x75 + 0 x76 + 0 x77 + 0 x78 >= -995;
R32: 0 x1 + 0 x2 + 0 x3 + 0 x4 + 0 x5 + 0 x6 + 0 x7 + 0 x8 + 0 x9 + 0 x10 + 0 x11 + 0 x12 + 0 x13 + 0 x14 + 0 x15 + 0 x16 + 0 x17 + 0 x18 + 0 x19 + 0 x20 + 0 x21 + 0 x22 + 0 x23 + 0 x24 + 0 x25 + 0 x26 + 0 x27 + 0 x28 + 0 x29 + 0 x30 + 0 x31 + 1 x32 + 1 x33 + 1 x34 + 1 x35 + 1 x36 + 0 x37 + 0 x38 + 0 x39 + 0 x40 + 0 x41 + 0 x42 + 0 x43 + 0 x44 + 0 x45 + 0 x46 + 0 x47 + 0 x48 + 0 x49 + 0 x50 + 0 x51 + 0 x52 + 0 x53 + 0 x54 + 0 x55 + 0 x56 + 0 x57 + 0 x58 + 0 x59 + 0 x60 + 0 x61 + 0 x62 + 0 x63 + 0 x64 + 0 x65 + 0 x66 + 0 x67 + 0 x68 + 0 x69 + 0 x70 + 0 x71 + 0 x72 + 0 x73 + 0 x74 + -1000 x75 + 0 x76 + 0 x77 + 0 x78 >= -995;
R33: 0 x1 + 0 x2 + 0 x3 + 0 x4 + 0 x5 + 0 x6 + 0 x7 + 0 x8 + 0 x9 + 0 x10 + 0 x11 + 0 x12 + 0 x13 + 0 x14 + 0 x15 + 0 x16 + 0 x17 + 0 x18 + 0 x19 + 0 x20 + 0 x21 + 0 x22 + 0 x23 + 0 x24 + 0 x25 + 0 x26 + 0 x27 + 0 x28 + 0 x29 + 0 x30 + 0 x31 + 0 x32 + 1 x33 + 1 x34 + 1 x35 + 1 x36 + 1 x37 + 0 x38 + 0 x39 + 0 x40 + 0 x41 + 0 x42 + 0 x43 + 0 x44 + 0 x45 + 0 x46 + 0 x47 + 0 x48 + 0 x49 + 0 x50 + 0 x51 + 0 x52 + 0 x53 + 0 x54 + 0 x55 + 0 x56 + 0 x57 + 0 x58 + 0 x59 + 0 x60 + 0 x61 + 0 x62 + 0 x63 + 0 x64 + 0 x65 + 0 x66 + 0 x67 + 0 x68 + 0 x69 + 0 x70 + 0 x71 + 0 x72 + 0 x73 + 0 x74 + 0 x75 + -1000 x76 + 0 x77 + 0 x78 >= -995;
R34: 0 x1 + 0 x2 + 0 x3 + 0 x4 + 0 x5 + 0 x6 + 0 x7 + 0 x8 + 0 x9 + 0 x10 + 0 x11 + 0 x12 + 0 x13 + 0 x14 + 0 x15 + 0 x16 + 0 x17 + 0 x18 + 0 x19 + 0 x20 + 0 x21 + 0 x22 + 0 x23 + 0 x24 + 0 x25 + 0 x26 + 0 x27 + 0 x28 + 0 x29 + 0 x30 + 0 x31 + 0 x32 + 0 x33 + 1 x34 + 1 x35 + 1 x36 + 1 x37 + 1 x38 + 0 x39 + 0 x40 + 0 x41 + 0 x42 + 0 x43 + 0 x44 + 0 x45 + 0 x46 + 0 x47 + 0 x48 + 0 x49 + 0 x50 + 0 x51 + 0 x52 + 0 x53 + 0 x54 + 0 x55 + 0 x56 + 0 x57 + 0 x58 + 0 x59 + 0 x60 + 0 x61 + 0 x62 + 0 x63 + 0 x64 + 0 x65 + 0 x66 + 0 x67 + 0 x68 + 0 x69 + 0 x70 + 0 x71 + 0 x72 + 0 x73 + 0 x74 + 0 x75 + 0 x76 + -1000 x77 + 0 x78 >= -995;
R35: 0 x1 + 0 x2 + 0 x3 + 0 x4 + 0 x5 + 0 x6 + 0 x7 + 0 x8 + 0 x9 + 0 x10 + 0 x11 + 0 x12 + 0 x13 + 0 x14 + 0 x15 + 0 x16 + 0 x17 + 0 x18 + 0 x19 + 0 x20 + 0 x21 + 0 x22 + 0 x23 + 0 x24 + 0 x25 + 0 x26 + 0 x27 + 0 x28 + 0 x29 + 0 x30 + 0 x31 + 0 x32 + 0 x33 + 0 x34 + 1 x35 + 1 x36 + 1 x37 + 1 x38 + 1 x39 + 0 x40 + 0 x41 + 0 x42 + 0 x43 + 0 x44 + 0 x45 + 0 x46 + 0 x47 + 0 x48 + 0 x49 + 0 x50 + 0 x51 + 0 x52 + 0 x53 + 0 x54 + 0 x55 + 0 x56 + 0 x57 + 0 x58 + 0 x59 + 0 x60 + 0 x61 + 0 x62 + 0 x63 + 0 x64 + 0 x65 + 0 x66 + 0 x67 + 0 x68 + 0 x69 + 0 x70 + 0 x71 + 0 x72 + 0 x73 + 0 x74 + 0 x75 + 0 x76 + 0 x77 + -1000 x78 >= -995;
x1<=1;
x2<=1;
x3<=1;
x4<=1;
x5<=1;
x6<=1;
x7<=1;
x8<=1;
x9<=1;
x10<=1;
x11<=1;
x12<=1;
x13<=1;
x14<=1;
x15<=1;
x16<=1;
x17<=1;
x18<=1;
x19<=1;
x20<=1;
x21<=1;
x22<=1;
x23<=1;
x24<=1;
x25<=1;
x26<=1;
x27<=1;
x28<=1;
x29<=1;
x30<=1;
x31<=1;
x32<=1;
x33<=1;
x34<=1;
x35<=1;
x36<=1;
x37<=1;
x38<=1;
x39<=1;
x40<=1;
x41<=1;
x42<=1;
x43<=1;
x44<=1;
x45<=1;
x46<=1;
x47<=1;
x48<=1;
x49<=1;
x50<=1;
x51<=1;
x52<=1;
x53<=1;
x54<=1;
x55<=1;
x56<=1;
x57<=1;
x58<=1;
x59<=1;
x60<=1;
x61<=1;
x62<=1;
x63<=1;
x64<=1;
x65<=1;
x66<=1;
x67<=1;
x68<=1;
x69<=1;
x70<=1;
x71<=1;
x72<=1;
x73<=1;
x74<=1;
x75<=1;
x76<=1;
x77<=1;
x78<=1;

int x1,x2,x3,x4,x5,x6,x7,x8,x9,x10,x11,x12,x13,x14,x15,x16,x17,x18,x19,x20,x21,x22,x23,x24,x25,x26,x27,x28,x29,x30,x31,x32,x33,x34,x35,x36,x37,x38,x39,x40,x41,x42,x43,x44,x45,x46,x47,x48,x49,x50,x51,x52,x53,x54,x55,x56,x57,x58,x59,x60,x61,x62,x63,x64,x65,x66,x67,x68,x69,x70,x71,x72,x73,x74,x75,x76,x77,x78;